decision_x1=[0,4];
decision_x2=[0,4];
decision_x3=[0,4];
decision_x4=[0,4];
decision_x5=[0,4];
decision_x6=[0,4];
random_y1=[0,4];
random_y2=[0,4];
random_y3=[0,4];
constraint_x2_x1=[
0,1,9.6|
0,2,9.6|
0,3,1.6|
0,4,5.9|
1,0,3.5|
1,2,7.6|
1,3,4.7|
1,4,3.1|
2,0,5.3|
2,1,5|
2,3,4.9|
2,4,2.5|
3,0,1.7|
3,1,5.2|
3,2,9.3|
3,4,4.4|
4,0,9.6|
4,1,6.4|
4,2,5.9|
4,3,0.77|
];
constraint_x3_x1=[
0,1,9.4|
0,2,4.3|
0,3,4.6|
0,4,1.1|
1,0,4.4|
1,2,2.3|
1,3,4.5|
1,4,2|
2,0,3|
2,1,7.1|
2,3,6.5|
2,4,5.9|
3,0,1.1|
3,1,6.4|
3,2,0.75|
3,4,2.5|
4,0,7.9|
4,1,2.1|
4,2,1.1|
4,3,3.2|
];
constraint_x5_x1=[
0,1,8.5|
0,2,3.8|
0,3,7|
0,4,4.2|
1,0,2.1|
1,2,8.9|
1,3,3.3|
1,4,1.1|
2,0,6.1|
2,1,2.1|
2,3,6.1|
2,4,0.6|
3,0,4.5|
3,1,4.3|
3,2,9.5|
3,4,4.3|
4,0,7.5|
4,1,5.1|
4,2,3.4|
4,3,0.32|
];
constraint_x5_x3=[
0,1,3.7|
0,2,9.6|
0,3,3.7|
0,4,6.9|
1,0,6.8|
1,2,9.8|
1,3,4.8|
1,4,5.5|
2,0,7.4|
2,1,8.8|
2,3,1.6|
2,4,8.8|
3,0,1.4|
3,1,0.38|
3,2,9.8|
3,4,5.6|
4,0,2.9|
4,1,7.2|
4,2,6.4|
4,3,5.4|
];
constraint_x6_x1=[
0,1,1.1|
0,2,5.5|
0,3,3.5|
0,4,0.7|
1,0,9.1|
1,2,1.6|
1,3,9.4|
1,4,7.9|
2,0,6.8|
2,1,10|
2,3,6.4|
2,4,8.7|
3,0,4.4|
3,1,8.6|
3,2,8.5|
3,4,6.2|
4,0,1|
4,1,1.4|
4,2,1.8|
4,3,0.84|
];
constraint_x6_x2=[
0,1,7.3|
0,2,5.6|
0,3,2|
0,4,3.2|
1,0,6.4|
1,2,6.3|
1,3,3.7|
1,4,8.2|
2,0,9.1|
2,1,2.7|
2,3,6.3|
2,4,8.9|
3,0,5.5|
3,1,4|
3,2,1.7|
3,4,5|
4,0,7.7|
4,1,4|
4,2,5.3|
4,3,7.9|
];
constraint_x6_x3=[
0,1,1.7|
0,2,9.6|
0,3,9.5|
0,4,4|
1,0,5.5|
1,2,8.2|
1,3,0.91|
1,4,0.85|
2,0,4.3|
2,1,0.47|
2,3,9.4|
2,4,2|
3,0,1.7|
3,1,0.56|
3,2,1.5|
3,4,1.4|
4,0,5.3|
4,1,9.6|
4,2,0.074|
4,3,5.5|
];
constraint_x6_x4=[
0,1,0.073|
0,2,5.4|
0,3,4.8|
0,4,6.5|
1,0,1.4|
1,2,4.7|
1,3,6.1|
1,4,7.4|
2,0,1.4|
2,1,0.035|
2,3,8.7|
2,4,1.1|
3,0,1.6|
3,1,2.1|
3,2,8.1|
3,4,2|
4,0,5.7|
4,1,6|
4,2,9.6|
4,3,7.5|
];
constraint_x1_y1=[
0,0,8.5|
0,1,2.6|
0,2,0.76|
0,3,3.5|
0,4,1.5|
1,0,3.3|
1,1,7.8|
1,2,6.9|
1,3,7.7|
1,4,8|
2,0,4.6|
2,1,2.1|
2,2,2.5|
2,3,5.8|
2,4,3.3|
3,0,3.1|
3,1,8.4|
3,2,0.32|
3,3,9.5|
3,4,7.3|
4,0,1|
4,1,0.7|
4,2,8.9|
4,3,4.6|
4,4,8.8|
];
constraint_x2_y2=[
0,0,7.7|
0,1,0.78|
0,2,4|
0,3,2.9|
0,4,3.8|
1,0,9.6|
1,1,2.7|
1,2,2|
1,3,9.2|
1,4,2.6|
2,0,7.3|
2,1,6.1|
2,2,6|
2,3,7.9|
2,4,4.5|
3,0,5.2|
3,1,9.6|
3,2,2.4|
3,3,9.6|
3,4,1.3|
4,0,2.2|
4,1,8.4|
4,2,6.2|
4,3,7.8|
4,4,9.1|
];
constraint_x3_y3=[
0,0,6.3|
0,1,6.3|
0,2,9.3|
0,3,9.4|
0,4,7|
1,0,3.2|
1,1,7.7|
1,2,7.2|
1,3,8.9|
1,4,7.3|
2,0,5.3|
2,1,3.4|
2,2,0.52|
2,3,2.6|
2,4,9.4|
3,0,3.1|
3,1,3|
3,2,2.4|
3,3,0.16|
3,4,1.4|
4,0,9.5|
4,1,3|
4,2,2.1|
4,3,7.5|
4,4,0.99|
];
initial_distribution_y1=[0.15,0.29,0.1,0.12,0.34];
initial_distribution_y2=[0.08,0.43,0.0072,0.17,0.31];
initial_distribution_y3=[0.18,0.038,0.19,0.31,0.27];
transition_y1=[
0.28,0.12,0.14,0.086,0.36|
0.024,0.013,0.18,0.33,0.45|
0.36,0.45,0.061,0.031,0.1|
0.27,0.24,0.059,0.21,0.21|
0.25,0.24,0.25,0.1,0.17|
];
transition_y2=[
0.085,0.15,0.38,0.073,0.31|
0.14,0.22,0.13,0.19,0.32|
0.14,0.28,0.27,0.11,0.21|
0.15,0.23,0.25,0.17,0.21|
0.088,0.25,0.4,0.14,0.12|
];
transition_y3=[
0.046,0.48,0.14,0.29,0.048|
0.15,0.26,0.16,0.061,0.37|
0.39,0.055,0.33,0.1,0.13|
0.23,0.33,0.34,0.084,0.0088|
0.12,0.14,0.16,0.33,0.25|
];
